experiments/knapsack_bounded/knapsack_bounded_25_9.mps.log
Algorithm statistics:
zero_reductions => 2054933
max_basis_size => 5187
queued_pairs => 0
built_pairs => 2147508
reduced_pairs => 2063223
eliminated_by_truncation => 3128
removed_by_autoreduction => 0
eliminated_by_gcd => 11302383
time => 1.269555417
memory => 0.6106933131814003
4ti2 results
4ti2 time => 1.440202136
